grid_data = [|
	0, 0, 0, 0, 0, 0, 0, 0|
	0, 0, 1, 1, 0, 0, 0, 0|
	0, 1, 1, 1, 1, 0, 0, 0|
	0, 1, 1, 0, 1, 1, 0, 0|
	0, 1, 1, 1, 0, 1, 1, 1|
	0, 0, 0, 1, 1, 0, 1, 1|
	0, 0, 0, 0, 1, 1, 1, 1|
	0, 0, 0, 0, 0, 1, 1, 0
|];
h_clue = [
	(row: 2, col: 2, len: 2, sum: 11),
	(row: 3, col: 1, len: 4, sum: 25),
	(row: 4, col: 1, len: 2, sum: 12),
	(row: 4, col: 4, len: 2, sum: 11),
	(row: 5, col: 1, len: 3, sum: 18),
	(row: 5, col: 5, len: 3, sum: 8),
	(row: 6, col: 3, len: 2, sum: 9),
	(row: 6, col: 6, len: 2, sum: 6),
	(row: 7, col: 4, len: 4, sum: 20),
	(row: 8, col: 5, len: 2, sum: 11)
];
v_clue = [
	(row: 1, col: 3, len: 4, sum: 29),
	(row: 1, col: 4, len: 2, sum: 4),
	(row: 2, col: 2, len: 3, sum: 24),
	(row: 2, col: 5, len: 2, sum: 17),
	(row: 3, col: 6, len: 2, sum: 3),
	(row: 4, col: 4, len: 2, sum: 3),
	(row: 4, col: 7, len: 4, sum: 11),
	(row: 4, col: 8, len: 3, sum: 7),
	(row: 5, col: 5, len: 2, sum: 16),
	(row: 6, col: 6, len: 2, sum: 17)
];
