grid_data = [|
	0, 0, 0, 0, 0, 0|
	0, 0, 1, 1, 0, 0|
	0, 1, 1, 1, 1, 0|
	0, 1, 1, 0, 1, 1|
	0, 0, 1, 1, 1, 1|
	0, 0, 0, 1, 1, 0
|];
h_clue = [
	(row: 2, col: 2, len: 2, sum: 4),
	(row: 3, col: 1, len: 4, sum: 27),
	(row: 4, col: 1, len: 2, sum: 5),
	(row: 4, col: 4, len: 2, sum: 15),
	(row: 5, col: 2, len: 4, sum: 11),
	(row: 6, col: 3, len: 2, sum: 13)
];
v_clue = [
	(row: 1, col: 3, len: 4, sum: 17),
	(row: 1, col: 4, len: 2, sum: 5),
	(row: 2, col: 2, len: 2, sum: 13),
	(row: 2, col: 5, len: 4, sum: 24),
	(row: 3, col: 6, len: 2, sum: 7),
	(row: 4, col: 4, len: 2, sum: 9)
];
