grid_data = [|
	0, 0, 0, 0, 0, 0|
	0, 0, 1, 1, 1, 0|
	0, 1, 1, 1, 1, 0|
	0, 1, 1, 0, 1, 1|
	0, 0, 1, 1, 1, 1|
	0, 0, 1, 1, 1, 0
|];
h_clue = [
	(row: 2, col: 2, len: 3, sum: 13),
	(row: 3, col: 1, len: 4, sum: 14),
	(row: 4, col: 1, len: 2, sum: 10),
	(row: 4, col: 4, len: 2, sum: 13),
	(row: 5, col: 2, len: 4, sum: 25),
	(row: 6, col: 2, len: 3, sum: 15)
];
v_clue = [
	(row: 1, col: 3, len: 5, sum: 34),
	(row: 1, col: 4, len: 2, sum: 3),
	(row: 1, col: 5, len: 5, sum: 16),
	(row: 2, col: 2, len: 2, sum: 4),
	(row: 3, col: 6, len: 2, sum: 16),
	(row: 4, col: 4, len: 2, sum: 17)
];
